--- Job nrg_run_2_8x2_2.gms Start 04/28/13 14:15:16 WEX-VS8 24.0.2 x86/MS Windows        
GAMS Rev 240  Copyright (C) 1987-2013 GAMS Development. All rights reserved
Licensee: Gary Goldstein                                 G010614:2121CA-WIN
          Decision Ware, Inc.                                        DC2807
--- Starting compilation
--- nrg_run_2_8x2_2.gms(5) 2 Mb
--- .params_2_8x2_2.gms(71) 3 Mb
--- nrg_run_2_8x2_2.gms(6) 3 Mb
--- .nrg_model_2.gms(109) 3 Mb
--- nrg_run_2_8x2_2.gms(16) 3 Mb
--- Starting execution: elapsed 0:00:00.032
--- nrg_run_2_8x2_2.gms(175) 4 Mb
--- Generating MIP model min_wqt
--- nrg_run_2_8x2_2.gms(177) 4 Mb
---   1,135 rows  442 columns  2,784 non-zeroes
---   420 discrete-columns
***
***   200 Integer +INF Bounds have been reset to 100
***
--- Executing CPLEX: elapsed 0:00:00.047

IBM ILOG CPLEX   Feb 14, 2013 24.0.2 WIN 38380.38394 VS8 x86/MS Windows       
--- GAMS/Cplex licensed for continuous and discrete problems.
Cplex 12.5.0.0

Reading parameter(s) from "D:\Facultad\OPI\gams-opi\cplex.opt"
>>  threads 2
>>  nodefileind 2
>>  workmem 768
Finished reading from "D:\Facultad\OPI\gams-opi\cplex.opt"
Reading data...
Starting Cplex...
Tried aggregator 2 times.
MIP Presolve eliminated 757 rows and 147 columns.
MIP Presolve modified 84 coefficients.
Aggregator did 130 substitutions.
Reduced MIP has 248 rows, 165 columns, and 924 nonzeros.
Reduced MIP has 148 binaries, 6 generals, 0 SOSs, and 0 indicators.
Presolve time = 0.01 sec. (2.28 ticks)
Found incumbent of value 5.3183389e+007 after 0.01 sec. (2.83 ticks)
Probing time = 0.02 sec. (0.46 ticks)
Tried aggregator 1 time.
Presolve time = -0.00 sec. (0.49 ticks)
Probing time = 0.01 sec. (0.46 ticks)
Clique table members: 1364.
MIP emphasis: balance optimality and feasibility.
MIP search method: dynamic search.
Parallel mode: deterministic, using up to 2 threads.
Tried aggregator 1 time.
No LP presolve or aggregator reductions.
Presolve time = 0.00 sec. (0.11 ticks)
Initializing dual steep norms . . .

Iteration log . . .
Iteration:     1   Dual objective     =      11811738.120400
Root relaxation solution time = 0.00 sec. (0.35 ticks)

        Nodes                                         Cuts/
   Node  Left     Objective  IInf  Best Integer    Best Bound    ItCnt     Gap

*     0+    0                      5.31834e+007  1.18117e+007       18   77.79%
Found incumbent of value 5.3183389e+007 after 0.06 sec. (5.16 ticks)
      0     0  1.19466e+007    13  5.31834e+007  1.19466e+007       18   77.54%
*     0+    0                      3.47415e+007  1.19466e+007       18   65.61%
Found incumbent of value 3.4741540e+007 after 0.06 sec. (5.57 ticks)
      0     0  1.19990e+007     9  3.47415e+007      Cuts: 15       35   65.46%
*     0+    0                      1.95210e+007  1.19990e+007       35   38.53%
Found incumbent of value 1.9520963e+007 after 0.08 sec. (7.68 ticks)
      0     0  1.19990e+007    16  1.95210e+007      Cuts: 10       49   38.53%
*     0+    0                      1.19990e+007  1.19990e+007       49    0.00%
Found incumbent of value 1.1999011e+007 after 0.08 sec. (8.72 ticks)
*     0     0      integral     0  1.19990e+007  1.19990e+007       49    0.00%
Elapsed time = 0.14 sec. (8.73 ticks, tree = 0.00 MB, solutions = 4)
Found incumbent of value 1.1999011e+007 after 0.14 sec. (8.73 ticks)

Implied bound cuts applied:  8
Flow cuts applied:  2
Mixed integer rounding cuts applied:  7
Gomory fractional cuts applied:  4

Root node processing (before b&c):
  Real time             =    0.11 sec. (4.86 ticks)
Parallel b&c, 2 threads:
  Real time             =    0.00 sec. (0.00 ticks)
  Sync time (average)   =    0.00 sec.
  Wait time (average)   =    0.00 sec.
                          ------------
Total (root+branch&cut) =    0.11 sec. (4.86 ticks)
MIP status(101): integer optimal solution
Cplex Time: 0.14sec (det. 8.75 ticks)
Fixing integer variables, and solving final LP...
Tried aggregator 1 time.
LP Presolve eliminated 1025 rows and 421 columns.
Aggregator did 10 substitutions.
Reduced LP has 100 rows, 11 columns, and 200 nonzeros.
Presolve time = 0.00 sec. (0.37 ticks)

Iteration log . . .
Iteration:     1   Dual objective     =      11999011.388300
Fixed MIP status(1): optimal
Cplex Time: 0.02sec (det. 0.79 ticks)

Proven optimal solution.

MIP Solution:     11999011.388300    (49 iterations, 0 nodes)
Final Solve:      11999011.388300    (4 iterations)

Best possible:    11999011.388300
Absolute gap:            0.000000
Relative gap:            0.000000

--- Restarting execution
--- nrg_run_2_8x2_2.gms(177) 0 Mb
--- Reading solution for model min_wqt
--- nrg_run_2_8x2_2.gms(196) 3 Mb
--- Putfile salida_starting_time D:\Facultad\OPI\gams-opi\m2_nrg_stime_8x2_2.txt
--- Putfile salida_assignment D:\Facultad\OPI\gams-opi\m2_nrg_assign_8x2_2.txt
*** Status: Normal completion
--- Job nrg_run_2_8x2_2.gms Stop 04/28/13 14:15:16 elapsed 0:00:00.375
